; 
(set-info :status unknown)
(declare-fun node_0x7ffff1e0d870 () (_ BitVec 1))
(declare-fun node_0x7ffff1e0e0e0 () (_ BitVec 1))
(declare-fun folt_0x7ffff1e340a0 () (_ BitVec 1))
(declare-fun fmul_0x7ffff1e33e70 () (_ BitVec 64))
(declare-fun node_0x7ffff1e33d40 () (_ BitVec 64))
(declare-fun LdMem_0x7ffff1e19050 () (_ BitVec 64))
(declare-fun node_0x7ffff1e33760 () (_ BitVec 64))
(declare-fun node_0x7ffff1e32c60 () (_ BitVec 64))
(declare-fun LdMem_0x7ffff1e32e00 () (_ BitVec 64))
(declare-fun StMem_0x7ffff1e1bf20 () (_ BitVec 64))
(declare-fun R0x7ffff1e08390 () (_ BitVec 1))
(declare-fun node_0x7ffff1e1b720 () (_ BitVec 64))
(declare-fun fsub_0x7ffff1e1b8c0 () (_ BitVec 64))
(declare-fun LdMem_0x7ffff1e18170 () (_ BitVec 64))
(declare-fun node_0x7ffff1e1a1e0 () (_ BitVec 64))
(declare-fun node_0x7ffff1e1b370 () (_ BitVec 64))
(declare-fun fmul_0x7ffff1e1b4f0 () (_ BitVec 64))
(declare-fun node_0x7ffff1e1af20 () (_ BitVec 64))
(declare-fun node_0x7ffff1e1a650 () (_ BitVec 64))
(declare-fun node_0x7ffff1e197c0 () (_ BitVec 32))
(declare-fun si2f_0x7ffff1e1a7f0 () (_ BitVec 64))
(declare-fun folt_0x7ffff1e35b10 () (_ BitVec 1))
(declare-fun fmul_0x7ffff1e358e0 () (_ BitVec 64))
(declare-fun node_0x7ffff1e357b0 () (_ BitVec 64))
(declare-fun node_0x7ffff1e35220 () (_ BitVec 64))
(declare-fun node_0x7ffff1e34890 () (_ BitVec 64))
(declare-fun LdMem_0x7ffff1e34a30 () (_ BitVec 64))
(declare-fun pcso_node_0x18a03b90 () (_ BitVec 64))
(declare-fun StMem_0x18a03cd0 () (_ BitVec 64))
(declare-fun node_0x7ffff1e2edf0 () (_ BitVec 64))
(declare-fun StMem_0x7ffff1e2f5c0 () (_ BitVec 64))
(declare-fun fsub_0x7ffff1e2ef90 () (_ BitVec 64))
(declare-fun node_0x7ffff1e2ea40 () (_ BitVec 64))
(declare-fun node_0x7ffff1e2d800 () (_ BitVec 64))
(declare-fun fadd_0x7ffff1e2d9a0 () (_ BitVec 64))
(declare-fun LdMem_0x7ffff1e1e6c0 () (_ BitVec 64))
(declare-fun node_0x7ffff1e2c280 () (_ BitVec 64))
(declare-fun node_0x7ffff1e2d450 () (_ BitVec 64))
(declare-fun fmul_0x7ffff1e2d5d0 () (_ BitVec 64))
(declare-fun LdMem_0x7ffff1e255b0 () (_ BitVec 64))
(declare-fun node_0x7ffff1e2d000 () (_ BitVec 64))
(declare-fun node_0x7ffff1e2c6f0 () (_ BitVec 64))
(declare-fun ccso_node_0x7ffff1e1d2c0 () (_ BitVec 32))
(declare-fun si2f_0x7ffff1e2c890 () (_ BitVec 64))
(declare-fun fmul_0x7ffff1e2ebc0 () (_ BitVec 64))
(declare-fun LdMem_0x7ffff1e2b370 () (_ BitVec 64))
(declare-fun node_0x7ffff1e2e5f0 () (_ BitVec 64))
(declare-fun node_0x7ffff1e2dbd0 () (_ BitVec 64))
(declare-fun si2f_0x7ffff1e2dd70 () (_ BitVec 64))
(declare-fun node_0x7ffff1e2bae0 () (_ BitVec 32))
(declare-fun f2si_0x7ffff1e2bc80 () (_ BitVec 32))
(declare-fun node_0x7ffff1e2b6c0 () (_ BitVec 64))
(declare-fun fdiv_0x7ffff1e2b860 () (_ BitVec 64))
(declare-fun node_0x7ffff1e2b1f0 () (_ BitVec 64))
(declare-fun parg_node_0x18a07580 () (_ BitVec 64))
(declare-fun StMem_0x18a07470 () (_ BitVec 64))
(declare-fun node_0x7ffff1e2a750 () (_ BitVec 64))
(declare-fun fadd_0x7ffff1e2a8f0 () (_ BitVec 64))
(declare-fun node_0x7ffff1e2a3a0 () (_ BitVec 64))
(declare-fun node_0x7ffff1e22b50 () (_ BitVec 64))
(declare-fun fmul_0x7ffff1e2a520 () (_ BitVec 64))
(declare-fun node_0x7ffff1e29f50 () (_ BitVec 64))
(declare-fun node_0x7ffff1e22fc0 () (_ BitVec 64))
(declare-fun node_0x7ffff1e28ed0 () (_ BitVec 64))
(declare-fun StMem_0x7ffff1e296a0 () (_ BitVec 64))
(declare-fun fsub_0x7ffff1e29070 () (_ BitVec 64))
(declare-fun node_0x7ffff1e28b20 () (_ BitVec 64))
(declare-fun node_0x7ffff1e279f0 () (_ BitVec 64))
(declare-fun fadd_0x7ffff1e27b90 () (_ BitVec 64))
(declare-fun node_0x7ffff1e26470 () (_ BitVec 64))
(declare-fun node_0x7ffff1e27640 () (_ BitVec 64))
(declare-fun fmul_0x7ffff1e277c0 () (_ BitVec 64))
(declare-fun LdMem_0x7ffff1e1efd0 () (_ BitVec 64))
(declare-fun node_0x7ffff1e271f0 () (_ BitVec 64))
(declare-fun node_0x7ffff1e268e0 () (_ BitVec 64))
(declare-fun si2f_0x7ffff1e26a80 () (_ BitVec 64))
(declare-fun fmul_0x7ffff1e28ca0 () (_ BitVec 64))
(declare-fun node_0x7ffff1e286d0 () (_ BitVec 64))
(declare-fun node_0x7ffff1e27dc0 () (_ BitVec 64))
(declare-fun si2f_0x7ffff1e27f60 () (_ BitVec 64))
(declare-fun node_0x7ffff1e25cd0 () (_ BitVec 32))
(declare-fun f2si_0x7ffff1e25e70 () (_ BitVec 32))
(declare-fun node_0x7ffff1e258b0 () (_ BitVec 64))
(declare-fun fdiv_0x7ffff1e25a50 () (_ BitVec 64))
(declare-fun node_0x7ffff1e25430 () (_ BitVec 64))
(declare-fun parg_node_0x18a070c0 () (_ BitVec 64))
(declare-fun StMem_0x18a06fb0 () (_ BitVec 64))
(declare-fun node_0x7ffff1e24900 () (_ BitVec 64))
(declare-fun fadd_0x7ffff1e24aa0 () (_ BitVec 64))
(declare-fun node_0x7ffff1e23d40 () (_ BitVec 64))
(declare-fun fmul_0x7ffff1e246d0 () (_ BitVec 64))
(declare-fun node_0x7ffff1e23920 () (_ BitVec 64))
(declare-fun si2f_0x7ffff1e23160 () (_ BitVec 64))
(declare-fun node_0x7ffff1e21400 () (_ BitVec 64))
(declare-fun StMem_0x7ffff1e21bf0 () (_ BitVec 64))
(declare-fun fsub_0x7ffff1e215a0 () (_ BitVec 64))
(declare-fun node_0x7ffff1e21050 () (_ BitVec 64))
(declare-fun node_0x7ffff1e1fee0 () (_ BitVec 64))
(declare-fun pcso_node_0x18a02f90 () (_ BitVec 64))
(declare-fun StMem_0x18a03140 () (_ BitVec 64))
(declare-fun pcso_node_0x18a01050 () (_ BitVec 64))
(declare-fun StMem_0xb3757c0 () (_ BitVec 64))
(declare-fun pcso_node_0x189fdf90 () (_ BitVec 64))
(declare-fun StMem_0x189fe140 () (_ BitVec 64))
(declare-fun pcso_node_0x189fbad0 () (_ BitVec 64))
(declare-fun StMem_0x189fbc10 () (_ BitVec 64))
(declare-fun R0x7ffff1e0ae50 () (_ BitVec 1))
(declare-fun R0xb3a4670 () (_ BitVec 1))
(declare-fun R0xb3a5530 () (_ BitVec 1))
(declare-fun R0xb3a5b80 () (_ BitVec 1))
(declare-fun fmul_0x7ffff1e211d0 () (_ BitVec 64))
(declare-fun node_0x7ffff1e20c50 () (_ BitVec 64))
(declare-fun node_0x7ffff1e20300 () (_ BitVec 64))
(declare-fun si2f_0x7ffff1e204a0 () (_ BitVec 64))
(declare-fun node_0x7ffff1e1f740 () (_ BitVec 32))
(declare-fun f2si_0x7ffff1e1f8e0 () (_ BitVec 32))
(declare-fun node_0x7ffff1e1f320 () (_ BitVec 64))
(declare-fun fdiv_0x7ffff1e1f4c0 () (_ BitVec 64))
(declare-fun node_0x7ffff1e1e520 () (_ BitVec 64))
(declare-fun node_0x7ffff1e1ee50 () (_ BitVec 64))
(declare-fun parg_node_0x18a06250 () (_ BitVec 64))
(declare-fun StMem_0x18a05c00 () (_ BitVec 64))
(declare-fun R0x7ffff1e0bb20 () (_ BitVec 1))
(declare-fun R0xb3acbc0 () (_ BitVec 1))
(declare-fun and_0xb3adb40 () (_ BitVec 1))
(declare-fun R0xb3ad7b0 () (_ BitVec 1))
(declare-fun R0x7ffff1e0d200 () (_ BitVec 1))
(declare-fun R0x7ffff1e0c5a0 () (_ BitVec 1))
(declare-fun R0xb3abd80 () (_ BitVec 1))
(declare-fun and_0xb3ac3e0 () (_ BitVec 1))
(declare-fun R0xb3ac0e0 () (_ BitVec 1))
(declare-fun R0xb3ad160 () (_ BitVec 1))
(declare-fun and_0xb3ad4f0 () (_ BitVec 1))
(declare-fun node_0x7ffff1e0b4c0 () (_ BitVec 1))
(declare-fun R0x7ffff1e0b6f0 () (_ BitVec 1))
(declare-fun and_0xb3acf10 () (_ BitVec 1))
(declare-fun xor_0xb3ac8d0 () (_ BitVec 1))
(declare-fun R0xb3ac6f0 () (_ BitVec 1))
(declare-fun and_0x7ffff1e0c920 () (_ BitVec 1))
(declare-fun node_0x7ffff1e0c050 () (_ BitVec 1))
(declare-fun R0x7ffff1e0c280 () (_ BitVec 1))
(declare-fun xor_0xb3abf60 () (_ BitVec 1))
(declare-fun and_0x7ffff1e0d580 () (_ BitVec 1))
(declare-fun xor_0x7ffff1e0cf30 () (_ BitVec 1))
(declare-fun R0x7ffff1e0cd20 () (_ BitVec 1))
(declare-fun ieq_0x7ffff1e223c0 () (_ BitVec 1))
(declare-fun node_0x7ffff1e21fc0 () (_ BitVec 32))
(declare-fun srem_0x7ffff1e22160 () (_ BitVec 32))
(declare-fun xor_0x7ffff1e0bd30 () (_ BitVec 1))
(declare-fun ieq_0x7ffff1e1dd50 () (_ BitVec 1))
(declare-fun node_0x7ffff1e1d930 () (_ BitVec 32))
(declare-fun srem_0x7ffff1e1dad0 () (_ BitVec 32))
(declare-fun f2si_0x7ffff1e19960 () (_ BitVec 32))
(declare-fun node_0x7ffff1e193a0 () (_ BitVec 64))
(declare-fun fdiv_0x7ffff1e19540 () (_ BitVec 64))
(declare-fun node_0x7ffff1e18ed0 () (_ BitVec 64))
(declare-fun parg_node_0x18a037e0 () (_ BitVec 64))
(declare-fun StMem_0xb37f220 () (_ BitVec 64))
(declare-fun node_0x7ffff1e17fd0 () (_ BitVec 64))
(declare-fun pcso_node_0x18a02b80 () (_ BitVec 64))
(declare-fun StMem_0x18a02d30 () (_ BitVec 64))
(declare-fun pcso_node_0x18a00f10 () (_ BitVec 64))
(declare-fun StMem_0xb3749e0 () (_ BitVec 64))
(declare-fun pcso_node_0x189fdb80 () (_ BitVec 64))
(declare-fun StMem_0x189fdd30 () (_ BitVec 64))
(declare-fun pcso_node_0x189fb880 () (_ BitVec 64))
(declare-fun StMem_0x189fb9c0 () (_ BitVec 64))
(declare-fun R0x7ffff1e0a180 () (_ BitVec 1))
(declare-fun R0xb2e9c60 () (_ BitVec 1))
(declare-fun and_0xb3a4900 () (_ BitVec 1))
(declare-fun and_0xb3a58c0 () (_ BitVec 1))
(declare-fun node_0x7ffff1e091e0 () (_ BitVec 1))
(declare-fun R0x7ffff1e09490 () (_ BitVec 1))
(declare-fun R0xb3a5000 () (_ BitVec 1))
(declare-fun and_0xb3a61b0 () (_ BitVec 1))
(declare-fun R0x7ffff1e097d0 () (_ BitVec 1))
(declare-fun and_0xb3a52e0 () (_ BitVec 1))
(declare-fun xor_0xb3a4d80 () (_ BitVec 1))
(declare-fun R0xb3a4ba0 () (_ BitVec 1))
(declare-fun and_0x7ffff1e0a500 () (_ BitVec 1))
(declare-fun node_0x7ffff1e09cd0 () (_ BitVec 1))
(declare-fun R0x7ffff1e09ec0 () (_ BitVec 1))
(declare-fun xor_0xb3a4530 () (_ BitVec 1))
(declare-fun and_0x7ffff1e0b1d0 () (_ BitVec 1))
(declare-fun xor_0x7ffff1e0ab80 () (_ BitVec 1))
(declare-fun R0x7ffff1e0a970 () (_ BitVec 1))
(declare-fun ieq_0x7ffff1e147c0 () (_ BitVec 1))
(declare-fun LdMem_0x7ffff1e11b60 () (_ BitVec 32))
(declare-fun node_0x7ffff1e14250 () (_ BitVec 32))
(declare-fun xor_0x7ffff1e099e0 () (_ BitVec 1))
(declare-fun ieq_0x7ffff1e11de0 () (_ BitVec 1))
(declare-fun node_0x7ffff1e119e0 () (_ BitVec 32))
(declare-fun parg_node_0x189fc080 () (_ BitVec 32))
(declare-fun StMem_0x189fbf70 () (_ BitVec 32))
(declare-fun node_0x18a054b0 () (_ BitVec 32))
(declare-fun parg_node_0xb398ed0_CS0x42ed9a0 () (_ BitVec 32))
(declare-fun LdMem_0x18a04e60 () (_ BitVec 32))
(declare-fun parg_node_0x18a05180 () (_ BitVec 32))
(declare-fun StMem_0x18a04fd0 () (_ BitVec 32))
(declare-fun return_node_0x7ffff1e429b0_CS0x42ed9a0 () (_ BitVec 32))
(declare-fun node_0xfd66af0_CS0x42eafc0 () (_ BitVec 64))
(declare-fun node_0x7ffff1e12570 () (_ BitVec 64))
(declare-fun carg_node_0x7ffff1c37920_CS0x42eb808 () (_ BitVec 64))
(declare-fun ccso_node_0x7ffff1e0d9c0 () (_ BitVec 64))
(declare-fun fadd_0x7ffff1e12710 () (_ BitVec 64))
(declare-fun node_0xfe2db50_CS0x42eb808 () (_ BitVec 64))
(declare-fun node_0x7ffff1e15140 () (_ BitVec 64))
(declare-fun carg_node_0x7ffff1c37920_CS0x42ec0f8 () (_ BitVec 64))
(declare-fun ccso_node_0x7ffff1e14d60 () (_ BitVec 64))
(declare-fun fadd_0x7ffff1e152e0 () (_ BitVec 64))
(declare-fun node_0xfe2db50_CS0x42ec0f8 () (_ BitVec 64))
(declare-fun carg_node_0x7ffff1c37920_CS0x42ec5f8 () (_ BitVec 64))
(declare-fun node_0xfe2db50_CS0x42ec5f8 () (_ BitVec 64))
(declare-fun node_0xfd66e40_CS0x42eafc0 () (_ BitVec 64))
(declare-fun carg_node_0x7ffff1e08910 () (_ BitVec 64))
(assert
 (let (($x105 (= node_0x7ffff1e0d870 (_ bv1 1))))
 (let (($x108 (not $x105)))
 (let (($x107 (= node_0x7ffff1e0e0e0 (_ bv1 1))))
 (let (($x962 (not $x107)))
 (and $x962 $x108))))))
(assert
 (let (($x1186 (= node_0x7ffff1e0d870 folt_0x7ffff1e340a0)))
 (let (($x290 (or (or (= (_ bv0 64) (_ bv0 64)) (= node_0x7ffff1e33760 (_ bv0 64))) (and (distinct fmul_0x7ffff1e33e70 (_ bv0 64)) true))))
 (let (($x291 (and (= fmul_0x7ffff1e33e70 (bvmul (_ bv0 64) node_0x7ffff1e33760)) $x290)))
 (let (($x115 (= folt_0x7ffff1e340a0 (ite (bvslt node_0x7ffff1e32c60 node_0x7ffff1e33d40) (_ bv1 1) (_ bv0 1)))))
 (let (($x1370 (= node_0x7ffff1e32c60 LdMem_0x7ffff1e32e00)))
 (let (($x91 (= LdMem_0x7ffff1e32e00 StMem_0x7ffff1e1bf20)))
 (let (($x1286 (= node_0x7ffff1e1a1e0 LdMem_0x7ffff1e18170)))
 (let (($x128 (= fsub_0x7ffff1e1b8c0 (bvsub node_0x7ffff1e1a1e0 node_0x7ffff1e1b370))))
 (let (($x973 (= node_0x7ffff1e1b370 fmul_0x7ffff1e1b4f0)))
 (let (($x1166 (= node_0x7ffff1e1af20 LdMem_0x7ffff1e19050)))
 (let (($x245 (= node_0x7ffff1e1af20 (_ bv0 64))))
 (let (($x244 (= node_0x7ffff1e1a650 (_ bv0 64))))
 (let (($x246 (or $x244 $x245)))
 (let ((?x242 (bvmul node_0x7ffff1e1a650 node_0x7ffff1e1af20)))
 (let (($x249 (and (= fmul_0x7ffff1e1b4f0 ?x242) (or $x246 (and (distinct fmul_0x7ffff1e1b4f0 (_ bv0 64)) true)))))
 (let (($x254 (= si2f_0x7ffff1e1a7f0 ((_ sign_extend 32) node_0x7ffff1e197c0))))
 (let (($x1044 (= node_0x7ffff1e1a650 si2f_0x7ffff1e1a7f0)))
 (let (($x1117 (= node_0x7ffff1e0e0e0 folt_0x7ffff1e35b10)))
 (let (($x672 (or (or (= (_ bv0 64) (_ bv0 64)) (= node_0x7ffff1e35220 (_ bv0 64))) (and (distinct fmul_0x7ffff1e358e0 (_ bv0 64)) true))))
 (let (($x673 (and (= fmul_0x7ffff1e358e0 (bvmul (_ bv0 64) node_0x7ffff1e35220)) $x672)))
 (let (($x301 (= folt_0x7ffff1e35b10 (ite (bvslt node_0x7ffff1e34890 node_0x7ffff1e357b0) (_ bv1 1) (_ bv0 1)))))
 (let (($x1284 (= node_0x7ffff1e34890 LdMem_0x7ffff1e34a30)))
 (let (($x62 (= StMem_0x18a03cd0 pcso_node_0x18a03b90)))
 (let (($x1442 (= StMem_0x7ffff1e2f5c0 node_0x7ffff1e2edf0)))
 (let (($x580 (= fsub_0x7ffff1e2ef90 (bvsub node_0x7ffff1e2d800 node_0x7ffff1e2ea40))))
 (let (($x1391 (= node_0x7ffff1e2d800 fadd_0x7ffff1e2d9a0)))
 (let (($x586 (= fadd_0x7ffff1e2d9a0 (bvadd node_0x7ffff1e2c280 node_0x7ffff1e2d450))))
 (let (($x1002 (= node_0x7ffff1e2d450 fmul_0x7ffff1e2d5d0)))
 (let (($x598 (or (or (= node_0x7ffff1e2c6f0 (_ bv0 64)) (= node_0x7ffff1e2d000 (_ bv0 64))) (and (distinct fmul_0x7ffff1e2d5d0 (_ bv0 64)) true))))
 (let (($x593 (= fmul_0x7ffff1e2d5d0 (bvmul node_0x7ffff1e2c6f0 node_0x7ffff1e2d000))))
 (let (($x599 (and $x593 $x598)))
 (let ((?x505 ((_ sign_extend 32) ccso_node_0x7ffff1e1d2c0)))
 (let (($x602 (= si2f_0x7ffff1e2c890 ?x505)))
 (let (($x1513 (= node_0x7ffff1e2ea40 fmul_0x7ffff1e2ebc0)))
 (let (($x1511 (= node_0x7ffff1e2e5f0 LdMem_0x7ffff1e2b370)))
 (let (($x611 (= node_0x7ffff1e2e5f0 (_ bv0 64))))
 (let (($x610 (= node_0x7ffff1e2dbd0 (_ bv0 64))))
 (let (($x612 (or $x610 $x611)))
 (let ((?x608 (bvmul node_0x7ffff1e2dbd0 node_0x7ffff1e2e5f0)))
 (let (($x615 (and (= fmul_0x7ffff1e2ebc0 ?x608) (or $x612 (and (distinct fmul_0x7ffff1e2ebc0 (_ bv0 64)) true)))))
 (let (($x1077 (= node_0x7ffff1e2dbd0 si2f_0x7ffff1e2dd70)))
 (let (($x620 (= si2f_0x7ffff1e2dd70 ((_ sign_extend 32) node_0x7ffff1e2bae0))))
 (let (($x1424 (= node_0x7ffff1e2bae0 f2si_0x7ffff1e2bc80)))
 (let ((?x624 ((_ extract 31 0) node_0x7ffff1e2b6c0)))
 (let (($x625 (= f2si_0x7ffff1e2bc80 ?x624)))
 (let (($x1377 (= node_0x7ffff1e2b6c0 fdiv_0x7ffff1e2b860)))
 (let (($x1397 (= LdMem_0x7ffff1e2b370 StMem_0x18a07470)))
 (let (($x636 (or (or (= node_0x7ffff1e2a750 (_ bv0 64)) (= node_0x7ffff1e2b1f0 (_ bv0 64))) (and (distinct fdiv_0x7ffff1e2b860 (_ bv0 64)) true))))
 (let (($x631 (= fdiv_0x7ffff1e2b860 (bvsdiv node_0x7ffff1e2a750 node_0x7ffff1e2b1f0))))
 (let (($x637 (and $x631 $x636)))
 (let (($x1290 (= node_0x7ffff1e2a750 fadd_0x7ffff1e2a8f0)))
 (let (($x642 (= fadd_0x7ffff1e2a8f0 (bvadd node_0x7ffff1e22b50 node_0x7ffff1e2a3a0))))
 (let (($x66 (= node_0x7ffff1e2a3a0 fmul_0x7ffff1e2a520)))
 (let (($x651 (or (or (= node_0x7ffff1e22fc0 (_ bv0 64)) (= node_0x7ffff1e29f50 (_ bv0 64))) (and (distinct fmul_0x7ffff1e2a520 (_ bv0 64)) true))))
 (let (($x647 (= fmul_0x7ffff1e2a520 (bvmul node_0x7ffff1e22fc0 node_0x7ffff1e29f50))))
 (let (($x652 (and $x647 $x651)))
 (let (($x1085 (= StMem_0x7ffff1e296a0 node_0x7ffff1e28ed0)))
 (let (($x482 (= fsub_0x7ffff1e29070 (bvsub node_0x7ffff1e279f0 node_0x7ffff1e28b20))))
 (let (($x1437 (= node_0x7ffff1e279f0 fadd_0x7ffff1e27b90)))
 (let (($x488 (= fadd_0x7ffff1e27b90 (bvadd node_0x7ffff1e26470 node_0x7ffff1e27640))))
 (let (($x1376 (= node_0x7ffff1e27640 fmul_0x7ffff1e277c0)))
 (let (($x500 (or (or (= node_0x7ffff1e268e0 (_ bv0 64)) (= node_0x7ffff1e271f0 (_ bv0 64))) (and (distinct fmul_0x7ffff1e277c0 (_ bv0 64)) true))))
 (let (($x495 (= fmul_0x7ffff1e277c0 (bvmul node_0x7ffff1e268e0 node_0x7ffff1e271f0))))
 (let (($x501 (and $x495 $x500)))
 (let (($x506 (= si2f_0x7ffff1e26a80 ?x505)))
 (let (($x82 (= node_0x7ffff1e268e0 si2f_0x7ffff1e26a80)))
 (let (($x1481 (= node_0x7ffff1e28b20 fmul_0x7ffff1e28ca0)))
 (let (($x841 (= node_0x7ffff1e286d0 LdMem_0x7ffff1e255b0)))
 (let (($x515 (= node_0x7ffff1e286d0 (_ bv0 64))))
 (let (($x514 (= node_0x7ffff1e27dc0 (_ bv0 64))))
 (let (($x516 (or $x514 $x515)))
 (let ((?x512 (bvmul node_0x7ffff1e27dc0 node_0x7ffff1e286d0)))
 (let (($x513 (= fmul_0x7ffff1e28ca0 ?x512)))
 (let (($x519 (and $x513 (or $x516 (and (distinct fmul_0x7ffff1e28ca0 (_ bv0 64)) true)))))
 (let (($x695 (= node_0x7ffff1e27dc0 si2f_0x7ffff1e27f60)))
 (let (($x524 (= si2f_0x7ffff1e27f60 ((_ sign_extend 32) node_0x7ffff1e25cd0))))
 (let (($x1094 (= node_0x7ffff1e25cd0 f2si_0x7ffff1e25e70)))
 (let ((?x528 ((_ extract 31 0) node_0x7ffff1e258b0)))
 (let (($x529 (= f2si_0x7ffff1e25e70 ?x528)))
 (let (($x829 (= node_0x7ffff1e258b0 fdiv_0x7ffff1e25a50)))
 (let (($x1353 (= node_0x7ffff1e25430 LdMem_0x7ffff1e255b0)))
 (let (($x1261 (= LdMem_0x7ffff1e255b0 StMem_0x18a06fb0)))
 (let (($x540 (or (or (= node_0x7ffff1e24900 (_ bv0 64)) (= node_0x7ffff1e25430 (_ bv0 64))) (and (distinct fdiv_0x7ffff1e25a50 (_ bv0 64)) true))))
 (let (($x535 (= fdiv_0x7ffff1e25a50 (bvsdiv node_0x7ffff1e24900 node_0x7ffff1e25430))))
 (let (($x541 (and $x535 $x540)))
 (let (($x1316 (= node_0x7ffff1e24900 fadd_0x7ffff1e24aa0)))
 (let (($x547 (= fadd_0x7ffff1e24aa0 (bvadd node_0x7ffff1e22b50 node_0x7ffff1e23d40))))
 (let (($x1269 (= node_0x7ffff1e23d40 fmul_0x7ffff1e246d0)))
 (let (($x559 (or (or (= node_0x7ffff1e22fc0 (_ bv0 64)) (= node_0x7ffff1e23920 (_ bv0 64))) (and (distinct fmul_0x7ffff1e246d0 (_ bv0 64)) true))))
 (let (($x554 (= fmul_0x7ffff1e246d0 (bvmul node_0x7ffff1e22fc0 node_0x7ffff1e23920))))
 (let (($x560 (and $x554 $x559)))
 (let (($x563 (= si2f_0x7ffff1e23160 ?x505)))
 (let (($x1439 (= StMem_0x7ffff1e21bf0 node_0x7ffff1e21400)))
 (let (($x408 (= fsub_0x7ffff1e215a0 (bvsub node_0x7ffff1e1fee0 node_0x7ffff1e21050))))
 (let (($x1457 (= node_0x7ffff1e1fee0 LdMem_0x7ffff1e1e6c0)))
 (let (($x1092 (= StMem_0x18a03140 pcso_node_0x18a02f90)))
 (let (($x1331 (= StMem_0xb3757c0 pcso_node_0x18a01050)))
 (let (($x1162 (= StMem_0x189fe140 pcso_node_0x189fdf90)))
 (let (($x187 (= StMem_0x189fbc10 pcso_node_0x189fbad0)))
 (let (($x1254 (= LdMem_0x7ffff1e1e6c0 StMem_0x18a03140)))
 (let (($x1266 (= LdMem_0x7ffff1e1e6c0 StMem_0xb3757c0)))
 (let (($x1278 (= LdMem_0x7ffff1e1e6c0 StMem_0x189fe140)))
 (let (($x955 (= LdMem_0x7ffff1e1e6c0 StMem_0x189fbc10)))
 (let (($x987 (= node_0x7ffff1e21050 fmul_0x7ffff1e211d0)))
 (let (($x1242 (= node_0x7ffff1e20c50 LdMem_0x7ffff1e1efd0)))
 (let (($x439 (= node_0x7ffff1e20c50 (_ bv0 64))))
 (let (($x438 (= node_0x7ffff1e20300 (_ bv0 64))))
 (let (($x440 (or $x438 $x439)))
 (let ((?x436 (bvmul node_0x7ffff1e20300 node_0x7ffff1e20c50)))
 (let (($x437 (= fmul_0x7ffff1e211d0 ?x436)))
 (let (($x443 (and $x437 (or $x440 (and (distinct fmul_0x7ffff1e211d0 (_ bv0 64)) true)))))
 (let (($x1263 (= node_0x7ffff1e20300 si2f_0x7ffff1e204a0)))
 (let (($x448 (= si2f_0x7ffff1e204a0 ((_ sign_extend 32) node_0x7ffff1e1f740))))
 (let (($x1383 (= node_0x7ffff1e1f740 f2si_0x7ffff1e1f8e0)))
 (let ((?x452 ((_ extract 31 0) node_0x7ffff1e1f320)))
 (let (($x453 (= f2si_0x7ffff1e1f8e0 ?x452)))
 (let (($x920 (= node_0x7ffff1e1f320 fdiv_0x7ffff1e1f4c0)))
 (let (($x464 (or (or (= node_0x7ffff1e1e520 (_ bv0 64)) (= node_0x7ffff1e1ee50 (_ bv0 64))) (and (distinct fdiv_0x7ffff1e1f4c0 (_ bv0 64)) true))))
 (let (($x459 (= fdiv_0x7ffff1e1f4c0 (bvsdiv node_0x7ffff1e1e520 node_0x7ffff1e1ee50))))
 (let (($x465 (and $x459 $x464)))
 (let (($x1036 (= node_0x7ffff1e1ee50 LdMem_0x7ffff1e1efd0)))
 (let (($x88 (= LdMem_0x7ffff1e1efd0 StMem_0x18a05c00)))
 (let (($x1268 (= LdMem_0x7ffff1e34a30 StMem_0x18a03cd0)))
 (let (($x1478 (= LdMem_0x7ffff1e34a30 StMem_0x7ffff1e2f5c0)))
 (let (($x981 (= LdMem_0x7ffff1e34a30 StMem_0x7ffff1e296a0)))
 (let (($x1354 (= LdMem_0x7ffff1e34a30 StMem_0x7ffff1e21bf0)))
 (let (($x394 (= and_0xb3adb40 (bvand R0xb3acbc0 R0x7ffff1e0bb20))))
 (let (($x1427 (= R0xb3ad7b0 and_0xb3adb40)))
 (let (($x379 (= and_0xb3ac3e0 (bvand R0xb3abd80 R0x7ffff1e0c5a0))))
 (let (($x1345 (= R0xb3ac0e0 and_0xb3ac3e0)))
 (let (($x67 (= R0xb3ad160 and_0xb3ad4f0)))
 (let (($x75 (= R0x7ffff1e0b6f0 node_0x7ffff1e0b4c0)))
 (let (($x310 (= and_0xb3ad4f0 (bvand R0xb3acbc0 R0x7ffff1e0b6f0))))
 (let (($x1247 (= R0xb3acbc0 and_0xb3acf10)))
 (let (($x1302 (= R0xb3ac6f0 xor_0xb3ac8d0)))
 (let (($x362 (= xor_0xb3ac8d0 (bvxor R0x7ffff1e0c5a0 (_ bv1 1)))))
 (let (($x1037 (= R0x7ffff1e0c5a0 and_0x7ffff1e0c920)))
 (let (($x1382 (= R0x7ffff1e0c280 node_0x7ffff1e0c050)))
 (let (($x367 (= and_0x7ffff1e0c920 (bvand R0x7ffff1e0bb20 R0x7ffff1e0c280))))
 (let (($x316 (= and_0xb3acf10 (bvand R0xb3abd80 R0xb3ac6f0))))
 (let (($x56 (= R0xb3abd80 xor_0xb3abf60)))
 (let (($x321 (= xor_0xb3abf60 (bvxor R0x7ffff1e0d200 (_ bv1 1)))))
 (let (($x1252 (= R0x7ffff1e0d200 and_0x7ffff1e0d580)))
 (let (($x1308 (= R0x7ffff1e0cd20 xor_0x7ffff1e0cf30)))
 (let (($x348 (= xor_0x7ffff1e0cf30 (bvxor node_0x7ffff1e0c050 (_ bv1 1)))))
 (let (($x1202 (= node_0x7ffff1e0c050 ieq_0x7ffff1e223c0)))
 (let ((?x353 (ite (= node_0x7ffff1e21fc0 (_ bv1 32)) (_ bv1 1) (_ bv0 1))))
 (let (($x354 (= ieq_0x7ffff1e223c0 ?x353)))
 (let ((?x342 (bvsrem node_0x7ffff1e197c0 (_ bv3 32))))
 (let (($x357 (= srem_0x7ffff1e22160 ?x342)))
 (let (($x327 (= and_0x7ffff1e0d580 (bvand R0x7ffff1e0bb20 R0x7ffff1e0cd20))))
 (let (($x1517 (= R0x7ffff1e0bb20 xor_0x7ffff1e0bd30)))
 (let (($x332 (= xor_0x7ffff1e0bd30 (bvxor node_0x7ffff1e0b4c0 (_ bv1 1)))))
 (let (($x336 (= node_0x7ffff1e1d930 (_ bv0 32))))
 (let ((?x337 (ite $x336 (_ bv1 1) (_ bv0 1))))
 (let (($x338 (= ieq_0x7ffff1e1dd50 ?x337)))
 (let (($x1135 (= node_0x7ffff1e1d930 srem_0x7ffff1e1dad0)))
 (let (($x343 (= srem_0x7ffff1e1dad0 ?x342)))
 (let (($x1313 (= node_0x7ffff1e197c0 f2si_0x7ffff1e19960)))
 (let ((?x258 ((_ extract 31 0) node_0x7ffff1e193a0)))
 (let (($x259 (= f2si_0x7ffff1e19960 ?x258)))
 (let (($x751 (= node_0x7ffff1e193a0 fdiv_0x7ffff1e19540)))
 (let (($x429 (= LdMem_0x7ffff1e19050 StMem_0xb37f220)))
 (let (($x270 (or (or (= node_0x7ffff1e17fd0 (_ bv0 64)) (= node_0x7ffff1e18ed0 (_ bv0 64))) (and (distinct fdiv_0x7ffff1e19540 (_ bv0 64)) true))))
 (let (($x265 (= fdiv_0x7ffff1e19540 (bvsdiv node_0x7ffff1e17fd0 node_0x7ffff1e18ed0))))
 (let (($x271 (and $x265 $x270)))
 (let (($x1196 (= StMem_0x18a02d30 pcso_node_0x18a02b80)))
 (let (($x1245 (= StMem_0xb3749e0 pcso_node_0x18a00f10)))
 (let (($x1195 (= StMem_0x189fdd30 pcso_node_0x189fdb80)))
 (let (($x1373 (= StMem_0x189fb9c0 pcso_node_0x189fb880)))
 (let (($x237 (= LdMem_0x7ffff1e18170 StMem_0x18a02d30)))
 (let (($x739 (= LdMem_0x7ffff1e18170 StMem_0xb3749e0)))
 (let (($x720 (= LdMem_0x7ffff1e18170 StMem_0x189fdd30)))
 (let (($x707 (= LdMem_0x7ffff1e18170 StMem_0x189fb9c0)))
 (let (($x218 (= and_0xb3a4900 (bvand R0xb2e9c60 R0x7ffff1e0a180))))
 (let (($x1087 (= R0xb3a4670 and_0xb3a4900)))
 (let (($x1232 (= R0xb3a5530 and_0xb3a58c0)))
 (let (($x1434 (= R0x7ffff1e09490 node_0x7ffff1e091e0)))
 (let (($x207 (= and_0xb3a58c0 (bvand R0xb3a5000 R0x7ffff1e09490))))
 (let (($x1134 (= R0xb3a5b80 and_0xb3a61b0)))
 (let (($x137 (= and_0xb3a61b0 (bvand R0xb3a5000 R0x7ffff1e097d0))))
 (let (($x1175 (= R0xb3a5000 and_0xb3a52e0)))
 (let (($x1208 (= R0xb3a4ba0 xor_0xb3a4d80)))
 (let (($x190 (= xor_0xb3a4d80 (bvxor R0x7ffff1e0a180 (_ bv1 1)))))
 (let (($x1256 (= R0x7ffff1e0a180 and_0x7ffff1e0a500)))
 (let (($x819 (= R0x7ffff1e09ec0 node_0x7ffff1e09cd0)))
 (let (($x195 (= and_0x7ffff1e0a500 (bvand R0x7ffff1e097d0 R0x7ffff1e09ec0))))
 (let (($x143 (= and_0xb3a52e0 (bvand R0xb2e9c60 R0xb3a4ba0))))
 (let (($x1428 (= R0xb2e9c60 xor_0xb3a4530)))
 (let (($x148 (= xor_0xb3a4530 (bvxor R0x7ffff1e0ae50 (_ bv1 1)))))
 (let (($x1470 (= R0x7ffff1e0ae50 and_0x7ffff1e0b1d0)))
 (let (($x1047 (= R0x7ffff1e0a970 xor_0x7ffff1e0ab80)))
 (let (($x177 (= xor_0x7ffff1e0ab80 (bvxor node_0x7ffff1e09cd0 (_ bv1 1)))))
 (let (($x926 (= node_0x7ffff1e09cd0 ieq_0x7ffff1e147c0)))
 (let (($x184 (= ieq_0x7ffff1e147c0 (ite (= node_0x7ffff1e14250 (_ bv1 32)) (_ bv1 1) (_ bv0 1)))))
 (let (($x153 (= and_0x7ffff1e0b1d0 (bvand R0x7ffff1e097d0 R0x7ffff1e0a970))))
 (let (($x1346 (= R0x7ffff1e097d0 xor_0x7ffff1e099e0)))
 (let (($x158 (= xor_0x7ffff1e099e0 (bvxor node_0x7ffff1e091e0 (_ bv1 1)))))
 (let (($x1244 (= node_0x7ffff1e091e0 ieq_0x7ffff1e11de0)))
 (let (($x163 (= node_0x7ffff1e119e0 (_ bv0 32))))
 (let ((?x164 (ite $x163 (_ bv1 1) (_ bv0 1))))
 (let (($x165 (= ieq_0x7ffff1e11de0 ?x164)))
 (let (($x1212 (= node_0x7ffff1e119e0 LdMem_0x7ffff1e11b60)))
 (let (($x1281 (= LdMem_0x7ffff1e11b60 StMem_0x189fbf70)))
 (and (or (not (= R0x7ffff1e08390 (_ bv1 1))) $x1281) $x1281 (= StMem_0x189fbf70 parg_node_0x189fc080) $x1212 $x165 $x1244 $x158 $x1346 $x153 $x184 (= node_0x7ffff1e14250 LdMem_0x7ffff1e11b60) $x926 $x177 $x1047 $x1470 $x148 $x1428 $x143 $x195 $x819 $x1256 $x190 $x1208 $x1175 $x137 $x1134 (or (not (= R0xb3a5b80 (_ bv1 1))) $x707) (or (not (= R0xb3a5530 (_ bv1 1))) $x720) $x207 $x1434 $x1232 (or (not (= R0xb3a4670 (_ bv1 1))) $x739) $x1087 $x218 (or (not (= R0x7ffff1e0ae50 (_ bv1 1))) $x237) (or $x707 $x720 $x739 $x237) $x1373 $x1195 $x1245 $x1196 (= node_0x7ffff1e17fd0 LdMem_0x7ffff1e18170) $x271 (or (not (= R0x7ffff1e08390 (_ bv1 1))) $x429) $x429 (= StMem_0xb37f220 parg_node_0x18a037e0) (= node_0x7ffff1e18ed0 LdMem_0x7ffff1e19050) $x751 $x259 $x1313 $x343 $x1135 $x338 (= node_0x7ffff1e0b4c0 ieq_0x7ffff1e1dd50) $x332 $x1517 $x327 (= node_0x7ffff1e21fc0 srem_0x7ffff1e22160) $x357 $x354 $x1202 $x348 $x1308 $x1252 $x321 $x56 $x316 $x367 $x1382 $x1037 $x362 $x1302 $x1247 $x310 $x75 $x67 (or (not (= R0xb3ad160 (_ bv1 1))) $x1354) (or (not (= R0xb3ac0e0 (_ bv1 1))) $x981) $x1345 $x379 (or (not (= R0x7ffff1e0d200 (_ bv1 1))) $x1478) (or (not (= R0xb3ad7b0 (_ bv1 1))) $x1268) $x1427 $x394 (or $x1354 $x981 $x1478 $x1268) (or (not (= R0x7ffff1e08390 (_ bv1 1))) $x88) $x88 (= StMem_0x18a05c00 parg_node_0x18a06250) $x1036 $x465 (= node_0x7ffff1e1e520 LdMem_0x7ffff1e1e6c0) $x920 $x453 $x1383 $x448 $x1263 $x443 $x1242 $x987 (or (not (= R0xb3a5b80 (_ bv1 1))) $x955) (or (not (= R0xb3a5530 (_ bv1 1))) $x1278) (or (not (= R0xb3a4670 (_ bv1 1))) $x1266) (or (not (= R0x7ffff1e0ae50 (_ bv1 1))) $x1254) (or $x955 $x1278 $x1266 $x1254) $x187 $x1162 $x1331 $x1092 $x1457 $x408 (= node_0x7ffff1e21400 fsub_0x7ffff1e215a0) $x1439 (= node_0x7ffff1e22fc0 si2f_0x7ffff1e23160) $x563 $x560 (= node_0x7ffff1e23920 LdMem_0x7ffff1e1efd0) $x1269 $x547 (= node_0x7ffff1e22b50 LdMem_0x7ffff1e1e6c0) $x1316 $x541 (or (not (= R0x7ffff1e08390 (_ bv1 1))) $x1261) $x1261 (= StMem_0x18a06fb0 parg_node_0x18a070c0) $x1353 $x829 $x529 $x1094 $x524 $x695 $x519 $x841 $x1481 $x82 $x506 $x501 (= node_0x7ffff1e271f0 LdMem_0x7ffff1e1efd0) $x1376 $x488 (= node_0x7ffff1e26470 LdMem_0x7ffff1e1e6c0) $x1437 $x482 (= node_0x7ffff1e28ed0 fsub_0x7ffff1e29070) $x1085 $x652 (= node_0x7ffff1e29f50 LdMem_0x7ffff1e255b0) $x66 $x642 $x1290 $x637 (or (not (= R0x7ffff1e08390 (_ bv1 1))) $x1397) $x1397 (= StMem_0x18a07470 parg_node_0x18a07580) (= node_0x7ffff1e2b1f0 LdMem_0x7ffff1e2b370) $x1377 $x625 $x1424 $x620 $x1077 $x615 $x1511 $x1513 (= node_0x7ffff1e2c6f0 si2f_0x7ffff1e2c890) $x602 $x599 (= node_0x7ffff1e2d000 LdMem_0x7ffff1e255b0) $x1002 $x586 (= node_0x7ffff1e2c280 LdMem_0x7ffff1e1e6c0) $x1391 $x580 (= node_0x7ffff1e2edf0 fsub_0x7ffff1e2ef90) $x1442 $x62 $x1284 $x301 $x673 (= node_0x7ffff1e35220 LdMem_0x7ffff1e19050) (= node_0x7ffff1e357b0 fmul_0x7ffff1e358e0) $x1117 $x1044 $x254 $x249 $x1166 $x973 $x128 $x1286 (= node_0x7ffff1e1b720 fsub_0x7ffff1e1b8c0) (= StMem_0x7ffff1e1bf20 node_0x7ffff1e1b720) (or (not (= R0x7ffff1e08390 (_ bv1 1))) $x91) $x91 $x1370 $x115 $x291 (= node_0x7ffff1e33760 LdMem_0x7ffff1e19050) (= node_0x7ffff1e33d40 fmul_0x7ffff1e33e70) $x1186))))))))))))))))))))))))))))))))))))))))))))))))))))))))))))))))))))))))))))))))))))))))))))))))))))))))))))))))))))))))))))))))))))))))))))))))))))))))))))))))))))))))))))))))))))))))))))))))))))))))))))))
(assert
 (= parg_node_0xb398ed0_CS0x42ed9a0 node_0x18a054b0))
(assert
 (let (($x1335 (= node_0x18a054b0 LdMem_0x18a04e60)))
 (let (($x1179 (= LdMem_0x18a04e60 StMem_0x18a04fd0)))
 (and (or (not (= R0x7ffff1e08390 (_ bv1 1))) $x1179) $x1179 (= StMem_0x18a04fd0 parg_node_0x18a05180) $x1335))))
(assert
 (= return_node_0x7ffff1e429b0_CS0x42ed9a0 ccso_node_0x7ffff1e1d2c0))
(assert
 (= node_0xfd66af0_CS0x42eafc0 pcso_node_0x189fb880))
(assert
 (= carg_node_0x7ffff1c37920_CS0x42eb808 node_0x7ffff1e12570))
(assert
 (let (($x880 (= fadd_0x7ffff1e12710 (bvadd ccso_node_0x7ffff1e0d9c0 (_ bv10000 64)))))
 (let (($x1029 (= node_0x7ffff1e12570 fadd_0x7ffff1e12710)))
 (and $x1029 $x880))))
(assert
 (= node_0xfe2db50_CS0x42eb808 pcso_node_0x189fdb80))
(assert
 (= carg_node_0x7ffff1c37920_CS0x42ec0f8 node_0x7ffff1e15140))
(assert
 (let (($x893 (= fadd_0x7ffff1e152e0 (bvadd ccso_node_0x7ffff1e14d60 (_ bv10000 64)))))
 (let (($x1384 (= node_0x7ffff1e15140 fadd_0x7ffff1e152e0)))
 (and $x1384 $x893))))
(assert
 (= node_0xfe2db50_CS0x42ec0f8 pcso_node_0x18a00f10))
(assert
 (= carg_node_0x7ffff1c37920_CS0x42ec5f8 node_0x7ffff1e15140))
(assert
 (= node_0xfe2db50_CS0x42ec5f8 pcso_node_0x18a02b80))
(assert
 (= node_0xfd66e40_CS0x42eafc0 pcso_node_0x189fbad0))
(assert
 (and (distinct carg_node_0x7ffff1e08910 (_ bv0 64)) true))
(maximize StMem_0x7ffff1e296a0)
(maximize fdiv_0x7ffff1e25a50)
(maximize fmul_0x7ffff1e277c0)
(minimize parg_node_0x18a07580)
(maximize fmul_0x7ffff1e28ca0)
(maximize carg_node_0x7ffff1c37920_CS0x42ec0f8)
(minimize and_0xb3a4900)
(maximize and_0x7ffff1e0c920)
(maximize fsub_0x7ffff1e1b8c0)
(maximize pcso_node_0x189fb880)
(maximize node_0x7ffff1e25cd0)
(minimize fsub_0x7ffff1e215a0)
(minimize StMem_0x7ffff1e2f5c0)
(maximize node_0x7ffff1e14250)
(minimize node_0xfe2db50_CS0x42ec5f8)
(maximize StMem_0x7ffff1e1bf20)
(maximize node_0x7ffff1e12570)
(minimize node_0x7ffff1e2a3a0)
(maximize parg_node_0x18a06250)
(maximize node_0x7ffff1e193a0)
(maximize node_0x7ffff1e2d800)
(maximize R0xb3a5000)
(maximize R0xb3ac6f0)
(maximize R0xb3ad160)
(maximize LdMem_0x7ffff1e255b0)
(minimize fsub_0x7ffff1e2ef90)
(minimize carg_node_0x7ffff1e08910)
(maximize fsub_0x7ffff1e29070)
(maximize node_0x7ffff1e20c50)
(minimize node_0x7ffff1e1a1e0)
(maximize xor_0x7ffff1e0ab80)
(minimize node_0x7ffff1e1b370)
(minimize node_0xfe2db50_CS0x42ec0f8)
(minimize node_0x7ffff1e24900)
(minimize node_0x7ffff1e1ee50)
(minimize si2f_0x7ffff1e2dd70)
(maximize ieq_0x7ffff1e1dd50)
(maximize node_0x7ffff1e1b720)
(minimize node_0x7ffff1e2bae0)
(maximize node_0x7ffff1e17fd0)
(maximize node_0x7ffff1e1b370)
(minimize fmul_0x7ffff1e1b4f0)
(minimize node_0x7ffff1e20c50)
(minimize node_0x7ffff1e0d870)
(minimize node_0x7ffff1e2a750)
(minimize and_0xb3a58c0)
(maximize R0xb3a5530)
(maximize and_0xb3ad4f0)
(maximize node_0x7ffff1e1a650)
(maximize StMem_0x7ffff1e2f5c0)
(maximize node_0x7ffff1e0d870)
(maximize and_0xb3acf10)
(minimize node_0x7ffff1e34890)
(maximize R0xb3ac0e0)
(maximize pcso_node_0x189fdf90)
(maximize StMem_0x18a05c00)
(maximize pcso_node_0x18a00f10)
(maximize node_0xfd66e40_CS0x42eafc0)
(maximize si2f_0x7ffff1e2dd70)
(minimize fmul_0x7ffff1e28ca0)
(maximize LdMem_0x7ffff1e11b60)
(maximize node_0x7ffff1e0b4c0)
(minimize ieq_0x7ffff1e223c0)
(maximize folt_0x7ffff1e340a0)
(minimize LdMem_0x7ffff1e11b60)
(maximize node_0x7ffff1e18ed0)
(maximize and_0x7ffff1e0d580)
(minimize xor_0xb3ac8d0)
(minimize si2f_0x7ffff1e204a0)
(minimize parg_node_0x18a070c0)
(minimize si2f_0x7ffff1e26a80)
(maximize parg_node_0x18a05180)
(minimize carg_node_0x7ffff1c37920_CS0x42eb808)
(maximize node_0x7ffff1e286d0)
(minimize and_0x7ffff1e0d580)
(maximize node_0x7ffff1e27640)
(minimize pcso_node_0x189fbad0)
(minimize fdiv_0x7ffff1e2b860)
(minimize StMem_0x189fdd30)
(minimize si2f_0x7ffff1e27f60)
(minimize fmul_0x7ffff1e2a520)
(maximize parg_node_0x18a07580)
(maximize R0x7ffff1e0b6f0)
(minimize R0xb3a4ba0)
(minimize node_0x7ffff1e21fc0)
(maximize node_0x7ffff1e34890)
(maximize pcso_node_0x18a03b90)
(maximize ccso_node_0x7ffff1e1d2c0)
(maximize StMem_0xb37f220)
(minimize fsub_0x7ffff1e29070)
(minimize R0x7ffff1e0a180)
(minimize R0xb3ad7b0)
(minimize node_0xfd66af0_CS0x42eafc0)
(check-sat)
(get-objectives)
